50
20642

35 230
53 481
119 556
447 364
253 20
321 366
561 629
988 901
324 781
273 386
592 231
994 29
191 902
404 405
450 494
933 618
544 646
154 568
418 970
406 24
577 802
997 373
57 89
505 892
33 455
649 303
57 721
916 613
510 686
965 684
30 394
848 744
51 564
565 914
932 325
433 933
818 737
290 6
273 663
579 393
971 441
462 465
938 771
800 629
591 391
162 39
975 868
839 153
179 636
768 914
